c A SAT instance generated from a 3-CNF formula that had 32 clauses and 8 variables
p cnf 8 32
-6 3 2 0
-4 -6 -2 0
-3 6 -4 0
-8 -4 -3 0
-4 -6 2 0
-5 4 3 0
1 -4 -8 0
1 2 -4 0
8 -5 -7 0
-7 2 -6 0
-6 -3 1 0
-3 2 -8 0
6 8 4 0
2 -7 -4 0
-7 -6 -5 0
8 -5 -1 0
6 -1 8 0
3 1 -2 0
-2 -5 8 0
8 6 -7 0
-3 5 7 0
1 -3 8 0
-6 -3 5 0
6 -2 7 0
-7 -2 1 0
8 -7 3 0
4 7 -2 0
-1 -6 -7 0
5 -6 -8 0
-4 -7 -2 0
5 3 -7 0
-4 -2 -5 0
